
Gurobi 7.5.1 (win64, Python) logging started 02/18/18 18:20:58

Academic license - for non-commercial use only

Gurobi 7.5.1 (win64, Python) logging started 02/18/18 18:21:52

Academic license - for non-commercial use only

Gurobi 7.5.1 (win64, Python) logging started 02/18/18 18:23:20

Academic license - for non-commercial use only

Gurobi 7.5.1 (win64, Python) logging started 02/18/18 18:24:55

Academic license - for non-commercial use only

Gurobi 7.5.1 (win64, Python) logging started 02/18/18 18:29:16

Academic license - for non-commercial use only

Gurobi 7.5.1 (win64, Python) logging started 02/18/18 18:29:25

Academic license - for non-commercial use only

Gurobi 7.5.1 (win64, Python) logging started 02/18/18 18:29:54

Academic license - for non-commercial use only

Gurobi 7.5.1 (win64, Python) logging started 02/18/18 21:33:13

Academic license - for non-commercial use only

Gurobi 7.5.1 (win64, Python) logging started 02/18/18 21:36:50

Academic license - for non-commercial use only

Gurobi 7.5.1 (win64, Python) logging started 02/18/18 21:37:15

Academic license - for non-commercial use only

Gurobi 7.5.1 (win64, Python) logging started 02/18/18 21:37:23

Academic license - for non-commercial use only

Gurobi 7.5.1 (win64, Python) logging started 02/18/18 21:37:42

Academic license - for non-commercial use only

Gurobi 7.5.1 (win64, Python) logging started 02/18/18 21:37:53

Academic license - for non-commercial use only

Gurobi 7.5.1 (win64, Python) logging started 02/18/18 21:41:35

Academic license - for non-commercial use only

Gurobi 7.5.1 (win64, Python) logging started 02/18/18 21:41:43

Academic license - for non-commercial use only

Gurobi 7.5.1 (win64, Python) logging started 02/18/18 21:42:01

Academic license - for non-commercial use only

Gurobi 7.5.1 (win64, Python) logging started 02/18/18 21:44:01

Academic license - for non-commercial use only

Gurobi 7.5.1 (win64, Python) logging started 02/18/18 21:46:11

Academic license - for non-commercial use only

Gurobi 7.5.1 (win64, Python) logging started 02/18/18 21:46:18

Academic license - for non-commercial use only
